c NeuroCodeBench 2.0 CNF formula with verdict Sat
p cnf 10 16
6 5 -3 0
2 0
5 1 -7 0
7 10 5 1 6 9 -8 -2 0
4 3 -5 0
-10 -6 -7 0
2 -6 0
3 7 9 10 -5 -1 -4 0
6 5 9 -10 0
9 7 10 8 1 -2 -5 -3 -6 0
7 8 3 5 4 -10 -1 -9 0
2 1 -10 -9 0
1 -6 0
1 10 8 -7 -5 -6 -4 -9 0
5 1 9 4 -10 -7 -3 -2 -6 0
8 10 -4 -2 -9 0
